c Created with the Wolfram Language : www.wolfram.com
c 
p edge 60 336
e 1 2
e 1 5
e 2 6
e 4 6
e 6 8
e 7 8
e 4 9
e 3 10
e 9 10
e 6 12
e 9 12
e 11 12
e 10 13
e 2 14
e 7 14
e 11 14
e 12 15
e 13 15
e 4 16
e 7 16
e 12 16
e 15 16
e 2 17
e 6 17
e 12 17
e 13 17
e 7 18
e 8 18
e 13 18
e 15 18
e 2 19
e 5 19
e 6 19
e 7 19
e 8 19
e 18 19
e 2 20
e 5 20
e 11 20
e 12 20
e 17 20
e 9 21
e 5 22
e 7 22
e 17 22
e 1 23
e 18 23
e 20 23
e 8 24
e 10 24
e 12 24
e 14 24
e 16 24
e 23 24
e 1 25
e 4 25
e 17 25
e 23 25
e 1 26
e 3 26
e 17 26
e 20 26
e 25 26
e 1 27
e 5 27
e 16 27
e 17 27
e 19 27
e 24 27
e 1 28
e 2 28
e 10 28
e 11 28
e 12 28
e 21 28
e 25 28
e 3 29
e 4 29
e 10 29
e 13 29
e 17 29
e 18 29
e 1 30
e 3 30
e 18 30
e 26 30
e 1 31
e 14 31
e 16 31
e 21 31
e 29 31
e 30 31
e 1 32
e 2 32
e 19 32
e 20 32
e 23 32
e 12 33
e 14 33
e 18 33
e 20 33
e 28 33
e 2 34
e 6 34
e 17 34
e 23 34
e 27 34
e 21 35
e 25 35
e 26 35
e 32 35
e 1 36
e 3 36
e 7 36
e 10 36
e 12 36
e 14 36
e 18 36
e 20 36
e 34 36
e 30 37
e 31 37
e 34 37
e 6 38
e 7 38
e 9 38
e 12 38
e 17 38
e 23 38
e 26 38
e 33 38
e 35 38
e 37 38
e 4 39
e 11 39
e 21 39
e 23 39
e 26 39
e 29 39
e 9 40
e 10 40
e 12 40
e 13 40
e 25 40
e 34 40
e 38 40
e 2 41
e 13 41
e 15 41
e 16 41
e 19 41
e 25 41
e 37 41
e 1 42
e 12 42
e 15 42
e 22 42
e 29 42
e 35 42
e 36 42
e 37 42
e 40 42
e 5 43
e 14 43
e 16 43
e 17 43
e 19 43
e 21 43
e 27 43
e 28 43
e 40 43
e 10 44
e 19 44
e 21 44
e 23 44
e 24 44
e 4 45
e 11 45
e 23 45
e 30 45
e 36 45
e 43 45
e 6 46
e 15 46
e 16 46
e 18 46
e 23 46
e 33 46
e 34 46
e 2 47
e 4 47
e 7 47
e 15 47
e 18 47
e 24 47
e 28 47
e 38 47
e 45 47
e 3 48
e 13 48
e 17 48
e 27 48
e 32 48
e 42 48
e 7 49
e 10 49
e 11 49
e 12 49
e 24 49
e 30 49
e 31 49
e 35 49
e 41 49
e 43 49
e 48 49
e 3 50
e 8 50
e 10 50
e 16 50
e 24 50
e 28 50
e 44 50
e 11 51
e 16 51
e 27 51
e 28 51
e 30 51
e 35 51
e 36 51
e 37 51
e 39 51
e 40 51
e 1 52
e 2 52
e 7 52
e 9 52
e 11 52
e 22 52
e 24 52
e 27 52
e 34 52
e 35 52
e 40 52
e 42 52
e 43 52
e 47 52
e 50 52
e 4 53
e 6 53
e 15 53
e 20 53
e 22 53
e 28 53
e 40 53
e 41 53
e 42 53
e 47 53
e 51 53
e 1 54
e 4 54
e 8 54
e 10 54
e 12 54
e 15 54
e 16 54
e 22 54
e 31 54
e 42 54
e 46 54
e 48 54
e 49 54
e 50 54
e 3 55
e 4 55
e 35 55
e 42 55
e 43 55
e 45 55
e 47 55
e 50 55
e 51 55
e 9 56
e 14 56
e 23 56
e 25 56
e 31 56
e 33 56
e 37 56
e 40 56
e 9 57
e 19 57
e 23 57
e 28 57
e 32 57
e 44 57
e 45 57
e 53 57
e 5 58
e 6 58
e 16 58
e 29 58
e 31 58
e 34 58
e 35 58
e 37 58
e 39 58
e 43 58
e 45 58
e 50 58
e 52 58
e 57 58
e 2 59
e 5 59
e 9 59
e 11 59
e 19 59
e 38 59
e 46 59
e 47 59
e 48 59
e 56 59
e 1 60
e 2 60
e 7 60
e 12 60
e 14 60
e 26 60
e 27 60
e 31 60
e 34 60
e 37 60
e 41 60
e 42 60
e 44 60
e 45 60
e 58 60
